(set-info :smt-lib-version 2.6)
(set-logic QF_NIA)
(set-info :source |
Generated by: Cristina Borralleras, Daniel Larraz, Albert Oliveras, Enric Rodriguez-Carbonell, Albert Rubio
Generated on: 2017-04-27
Generator: VeryMax
Application: Termination proving
Target solver: barcelogic
|)
(set-info :license "https://creativecommons.org/licenses/by/4.0/")
(set-info :category "industrial")
(set-info :status unsat)
(declare-fun Nl5main_id1 () Int)
(declare-fun Nl5main_maxId1 () Int)
(declare-fun Nl5main_tmp1 () Int)
(declare-fun lam0n0 () Int)
(declare-fun lam0n1 () Int)
(declare-fun lam0n2 () Int)
(declare-fun lam0n3 () Int)
(declare-fun lam0n4 () Int)
(declare-fun lam0n6 () Int)
(declare-fun lam0n7 () Int)
(declare-fun lam0n5 () Int)
(declare-fun UndefCntr0_CT () Int)
(declare-fun Nl5CT1 () Int)
(declare-fun UndefCntr0_main_id () Int)
(declare-fun UndefCntr0_main_maxId () Int)
(declare-fun UndefCntr0_main_tmp () Int)
(declare-fun UndefCntr0_undef6 () Int)
(declare-fun lam1n0 () Int)
(declare-fun lam1n1 () Int)
(declare-fun lam1n2 () Int)
(declare-fun lam1n3 () Int)
(declare-fun lam1n4 () Int)
(declare-fun lam1n6 () Int)
(declare-fun lam1n7 () Int)
(declare-fun lam1n5 () Int)
(declare-fun lam2n0 () Int)
(declare-fun lam2n1 () Int)
(declare-fun lam2n2 () Int)
(declare-fun lam2n3 () Int)
(declare-fun lam2n4 () Int)
(declare-fun lam2n6 () Int)
(declare-fun lam2n7 () Int)
(declare-fun lam2n5 () Int)
(declare-fun UndefCntr1_CT () Int)
(declare-fun UndefCntr1_main_id () Int)
(declare-fun UndefCntr1_main_maxId () Int)
(declare-fun UndefCntr1_main_tmp () Int)
(declare-fun UndefCntr1_undef6 () Int)
(declare-fun lam3n0 () Int)
(declare-fun lam3n1 () Int)
(declare-fun lam3n2 () Int)
(declare-fun lam3n3 () Int)
(declare-fun lam3n4 () Int)
(declare-fun lam3n6 () Int)
(declare-fun lam3n7 () Int)
(declare-fun lam3n5 () Int)
(declare-fun lam4n0 () Int)
(declare-fun lam4n1 () Int)
(declare-fun lam4n2 () Int)
(declare-fun lam4n3 () Int)
(declare-fun undef4 () Int)
(declare-fun undef5 () Int)
(declare-fun main_id () Int)
(declare-fun main_maxId () Int)
(declare-fun FV_undef6_0 () Int)
(declare-fun FV_main_id_0 () Int)
(declare-fun FV_main_maxId_0 () Int)
(declare-fun FV_main_tmp_0 () Int)
(declare-fun FV_undef6_1 () Int)
(declare-fun FV_main_id_1 () Int)
(declare-fun FV_main_maxId_1 () Int)
(declare-fun FV_main_tmp_1 () Int)
(declare-fun lam5n0 () Int)
(declare-fun lam5n1 () Int)
(declare-fun lam5n2 () Int)
(declare-fun lam5n3 () Int)
(declare-fun lam5n5 () Int)
(declare-fun lam5n4 () Int)
(declare-fun lam6n0 () Int)
(declare-fun lam6n1 () Int)
(declare-fun lam6n2 () Int)
(declare-fun lam6n3 () Int)
(declare-fun lam6n4 () Int)
(declare-fun lam6n5 () Int)
(declare-fun FV_main_id_2 () Int)
(declare-fun FV_main_maxId_2 () Int)
(declare-fun FV_main_tmp_2 () Int)
(declare-fun FV_undef6_2 () Int)
(assert ( and ( <= ( - 1 ) Nl5main_id1 ) ( <= Nl5main_id1 1 ) ( <= ( - 1 ) Nl5main_maxId1 ) ( <= Nl5main_maxId1 1 ) ( <= ( - 1 ) Nl5main_tmp1 ) ( <= Nl5main_tmp1 1 ) ))
(assert ( or ( and ( >= lam0n0 0 ) ( >= lam0n1 0 ) ( >= lam0n2 0 ) ( >= lam0n3 0 ) ( >= lam0n4 0 ) ( >= lam0n6 0 ) ( >= lam0n7 0 ) ( > ( + ( * 1 lam0n2 ) ( * 1 lam0n3 ) ( * 1 lam0n4 ) ( * ( - 1 ) lam0n5 ) ( * UndefCntr0_CT lam0n6 ) ( * Nl5CT1 lam0n7 ) ( - 1 ) ) 0 ) ( = ( + ( * 1 lam0n2 ) ( * 1 lam0n3 ) ( * UndefCntr0_main_id lam0n6 ) ( * Nl5main_id1 lam0n7 ) ) 0 ) ( = ( + ( * ( - 1 ) lam0n0 ) ( * ( - 1 ) lam0n2 ) ( * 1 lam0n4 ) ( * UndefCntr0_main_maxId lam0n6 ) ( * Nl5main_maxId1 lam0n7 ) ) 0 ) ( = ( + ( * ( - 1 ) lam0n0 ) ( * ( - 1 ) lam0n1 ) ( * ( - 1 ) lam0n3 ) ( * ( - 1 ) lam0n4 ) ( * UndefCntr0_main_tmp lam0n6 ) ( * Nl5main_tmp1 lam0n7 ) ) 0 ) ( = ( + ( * 1 lam0n5 ) ( * UndefCntr0_undef6 lam0n6 ) ) 0 ) ) ( and ( >= lam1n0 0 ) ( >= lam1n1 0 ) ( >= lam1n2 0 ) ( >= lam1n3 0 ) ( >= lam1n4 0 ) ( >= lam1n6 0 ) ( >= lam1n7 0 ) ( > ( + ( * 1 lam1n2 ) ( * 1 lam1n3 ) ( * 1 lam1n4 ) ( * ( - 1 ) lam1n5 ) ( * UndefCntr0_CT lam1n6 ) ( * Nl5CT1 lam1n7 ) ( - 1 ( + Nl5CT1 ( * Nl5main_tmp1 0 ) ) ) ) 0 ) ( = ( + ( * 1 lam1n2 ) ( * 1 lam1n3 ) ( * UndefCntr0_main_id lam1n6 ) ( * Nl5main_id1 lam1n7 ) ( - ( + 0 Nl5main_id1 ) ) ) 0 ) ( = ( + ( * ( - 1 ) lam1n0 ) ( * ( - 1 ) lam1n2 ) ( * 1 lam1n4 ) ( * UndefCntr0_main_maxId lam1n6 ) ( * Nl5main_maxId1 lam1n7 ) ( - ( + 0 Nl5main_maxId1 ) ) ) 0 ) ( = ( + ( * ( - 1 ) lam1n0 ) ( * ( - 1 ) lam1n1 ) ( * ( - 1 ) lam1n3 ) ( * ( - 1 ) lam1n4 ) ( * UndefCntr0_main_tmp lam1n6 ) ( * Nl5main_tmp1 lam1n7 ) ) 0 ) ( = ( + ( * 1 lam1n5 ) ( * UndefCntr0_undef6 lam1n6 ) ) 0 ) ) ))
(assert ( or ( and ( >= lam2n0 0 ) ( >= lam2n1 0 ) ( >= lam2n2 0 ) ( >= lam2n3 0 ) ( >= lam2n4 0 ) ( >= lam2n6 0 ) ( >= lam2n7 0 ) ( > ( + ( * 1 lam2n3 ) ( * 1 lam2n4 ) ( * ( - 1 ) lam2n5 ) ( * UndefCntr1_CT lam2n6 ) ( * Nl5CT1 lam2n7 ) ( - 1 ) ) 0 ) ( = ( + ( * 1 lam2n3 ) ( * ( - 1 ) lam2n4 ) ( * UndefCntr1_main_id lam2n6 ) ( * Nl5main_id1 lam2n7 ) ) 0 ) ( = ( + ( * ( - 1 ) lam2n0 ) ( * ( - 1 ) lam2n1 ) ( * ( - 1 ) lam2n3 ) ( * UndefCntr1_main_maxId lam2n6 ) ( * Nl5main_maxId1 lam2n7 ) ) 0 ) ( = ( + ( * 1 lam2n0 ) ( * ( - 1 ) lam2n1 ) ( * ( - 1 ) lam2n2 ) ( * 1 lam2n4 ) ( * UndefCntr1_main_tmp lam2n6 ) ( * Nl5main_tmp1 lam2n7 ) ) 0 ) ( = ( + ( * 1 lam2n5 ) ( * UndefCntr1_undef6 lam2n6 ) ) 0 ) ) ( and ( >= lam3n0 0 ) ( >= lam3n1 0 ) ( >= lam3n2 0 ) ( >= lam3n3 0 ) ( >= lam3n4 0 ) ( >= lam3n6 0 ) ( >= lam3n7 0 ) ( > ( + ( * 1 lam3n3 ) ( * 1 lam3n4 ) ( * ( - 1 ) lam3n5 ) ( * UndefCntr1_CT lam3n6 ) ( * Nl5CT1 lam3n7 ) ( - 1 ( + Nl5CT1 ( * Nl5main_tmp1 1 ) ) ) ) 0 ) ( = ( + ( * 1 lam3n3 ) ( * ( - 1 ) lam3n4 ) ( * UndefCntr1_main_id lam3n6 ) ( * Nl5main_id1 lam3n7 ) ( - ( + 0 Nl5main_id1 ) ) ) 0 ) ( = ( + ( * ( - 1 ) lam3n0 ) ( * ( - 1 ) lam3n1 ) ( * ( - 1 ) lam3n3 ) ( * UndefCntr1_main_maxId lam3n6 ) ( * Nl5main_maxId1 lam3n7 ) ( - ( + 0 Nl5main_maxId1 ) ) ) 0 ) ( = ( + ( * 1 lam3n0 ) ( * ( - 1 ) lam3n1 ) ( * ( - 1 ) lam3n2 ) ( * 1 lam3n4 ) ( * UndefCntr1_main_tmp lam3n6 ) ( * Nl5main_tmp1 lam3n7 ) ( - ( + 0 ( * Nl5main_tmp1 1 ) ) ) ) 0 ) ( = ( + ( * 1 lam3n5 ) ( * UndefCntr1_undef6 lam3n6 ) ) 0 ) ) ))
(assert ( and ( <= ( * ( - 1 ) undef4 ) 0 ) ( <= ( + 1 undef4 ( * ( - 1 ) undef5 ) ) 0 ) ( = ( + main_id ( * ( - 1 ) undef4 ) ) 0 ) ( = ( + main_maxId ( * ( - 1 ) undef5 ) ) 0 ) ( <= ( + ( + Nl5CT1 ( * Nl5main_tmp1 1 ) ) ( * ( + 0 Nl5main_id1 ) main_id ) ( * ( + 0 Nl5main_maxId1 ) main_maxId ) ( * ( + 0 ( * Nl5main_tmp1 1 ) ) undef4 ) ) 0 ) ( <= ( + ( - 1 ) ( * ( - 1 ) undef4 ) ) 0 ) ( <= ( + 1 main_id ( * ( - 1 ) main_maxId ) ) 0 ) ))
(assert ( or ( not ( = UndefCntr0_main_id 0 ) ) ( not ( = UndefCntr0_main_maxId 0 ) ) ( not ( = UndefCntr0_main_tmp 0 ) ) ( not ( = UndefCntr0_undef6 0 ) ) ( = UndefCntr0_CT 0 ) ))
(assert ( or ( and ( = UndefCntr0_main_id 0 ) ( = UndefCntr0_main_maxId 0 ) ( = UndefCntr0_main_tmp 0 ) ) ( not ( = UndefCntr0_undef6 0 ) ) ))
(assert ( or ( not ( = UndefCntr1_main_id 0 ) ) ( not ( = UndefCntr1_main_maxId 0 ) ) ( not ( = UndefCntr1_main_tmp 0 ) ) ( not ( = UndefCntr1_undef6 0 ) ) ( = UndefCntr1_CT 0 ) ))
(assert ( or ( and ( = UndefCntr1_main_id 0 ) ( = UndefCntr1_main_maxId 0 ) ( = UndefCntr1_main_tmp 0 ) ) ( not ( = UndefCntr1_undef6 0 ) ) ))
(assert ( or ( = UndefCntr0_undef6 0 ) ( and ( and ( = UndefCntr0_main_id 0 ) ( = UndefCntr0_main_maxId 0 ) ( = UndefCntr0_main_tmp 0 ) ) ( or ( and ( = ( + ( - 1 ) FV_undef6_0 ) 0 ) ( <= ( + UndefCntr0_CT ( * UndefCntr0_undef6 FV_undef6_0 ) ( * UndefCntr0_main_id FV_main_id_0 ) ( * UndefCntr0_main_maxId FV_main_maxId_0 ) ( * UndefCntr0_main_tmp FV_main_tmp_0 ) ) 0 ) ) ( and ( and ( = UndefCntr0_undef6 UndefCntr1_undef6 ) ( = UndefCntr0_CT UndefCntr1_CT ) ) ( or ( and ( = ( + ( - 1 ) FV_undef6_0 ) 0 ) ( <= ( + UndefCntr0_CT ( * UndefCntr0_undef6 FV_undef6_0 ) ( * UndefCntr0_main_id FV_main_id_0 ) ( * UndefCntr0_main_maxId FV_main_maxId_0 ) ( * UndefCntr0_main_tmp FV_main_tmp_0 ) ) 0 ) ) ( and ( = ( + ( - 1 ) FV_undef6_1 ) 0 ) ( <= ( + UndefCntr1_CT ( * UndefCntr1_undef6 FV_undef6_1 ) ( * UndefCntr1_main_id FV_main_id_1 ) ( * UndefCntr1_main_maxId FV_main_maxId_1 ) ( * UndefCntr1_main_tmp FV_main_tmp_1 ) ) 0 ) ) ) ) ) ) ))
(assert ( or ( = UndefCntr1_undef6 0 ) ( and ( and ( = UndefCntr1_main_id 0 ) ( = UndefCntr1_main_maxId 0 ) ( = UndefCntr1_main_tmp 0 ) ) ( or ( and ( = ( + ( - 1 ) FV_undef6_1 ) 0 ) ( <= ( + UndefCntr1_CT ( * UndefCntr1_undef6 FV_undef6_1 ) ( * UndefCntr1_main_id FV_main_id_1 ) ( * UndefCntr1_main_maxId FV_main_maxId_1 ) ( * UndefCntr1_main_tmp FV_main_tmp_1 ) ) 0 ) ) ( and ( and ( = UndefCntr0_undef6 UndefCntr1_undef6 ) ( = UndefCntr0_CT UndefCntr1_CT ) ) ( or ( and ( = ( + ( - 1 ) FV_undef6_0 ) 0 ) ( <= ( + UndefCntr0_CT ( * UndefCntr0_undef6 FV_undef6_0 ) ( * UndefCntr0_main_id FV_main_id_0 ) ( * UndefCntr0_main_maxId FV_main_maxId_0 ) ( * UndefCntr0_main_tmp FV_main_tmp_0 ) ) 0 ) ) ( and ( = ( + ( - 1 ) FV_undef6_1 ) 0 ) ( <= ( + UndefCntr1_CT ( * UndefCntr1_undef6 FV_undef6_1 ) ( * UndefCntr1_main_id FV_main_id_1 ) ( * UndefCntr1_main_maxId FV_main_maxId_1 ) ( * UndefCntr1_main_tmp FV_main_tmp_1 ) ) 0 ) ) ) ) ) ) ))
(assert ( or ( and ( >= lam5n0 0 ) ( >= lam5n1 0 ) ( >= lam5n2 0 ) ( >= lam5n3 0 ) ( >= lam5n5 0 ) ( > ( + ( * 1 lam5n3 ) ( * Nl5CT1 lam5n5 ) ( - 1 ) ) 0 ) ( = ( + ( * 1 lam5n3 ) ( * 1 lam5n4 ) ( * Nl5main_id1 lam5n5 ) ) 0 ) ( = ( + ( * ( - 1 ) lam5n0 ) ( * ( - 1 ) lam5n1 ) ( * ( - 1 ) lam5n3 ) ( * Nl5main_maxId1 lam5n5 ) ) 0 ) ( = ( + ( * 1 lam5n0 ) ( * ( - 1 ) lam5n1 ) ( * ( - 1 ) lam5n2 ) ( * ( - 1 ) lam5n4 ) ( * Nl5main_tmp1 lam5n5 ) ) 0 ) ) ( and ( >= lam6n0 0 ) ( >= lam6n1 0 ) ( >= lam6n2 0 ) ( >= lam6n3 0 ) ( >= lam6n4 0 ) ( >= lam6n5 0 ) ( > ( + ( * 1 lam6n3 ) ( * 1 lam6n4 ) ( * Nl5CT1 lam6n5 ) ( - 1 ) ) 0 ) ( = ( + ( * 1 lam6n3 ) ( * 1 lam6n4 ) ( * Nl5main_id1 lam6n5 ) ) 0 ) ( = ( + ( * ( - 1 ) lam6n0 ) ( * ( - 1 ) lam6n1 ) ( * ( - 1 ) lam6n3 ) ( * Nl5main_maxId1 lam6n5 ) ) 0 ) ( = ( + ( * 1 lam6n0 ) ( * ( - 1 ) lam6n1 ) ( * ( - 1 ) lam6n2 ) ( * ( - 1 ) lam6n4 ) ( * Nl5main_tmp1 lam6n5 ) ) 0 ) ) ))
(assert ( and ( <= ( + Nl5CT1 ( * Nl5main_id1 FV_main_id_2 ) ( * Nl5main_maxId1 FV_main_maxId_2 ) ( * Nl5main_tmp1 FV_main_tmp_2 ) ) 0 ) ( or ( and ( <= ( + ( * ( - 1 ) FV_main_maxId_2 ) ( * ( - 1 ) FV_main_tmp_2 ) ) 0 ) ( <= ( * ( - 1 ) FV_main_tmp_2 ) 0 ) ( <= ( + 1 FV_main_id_2 ( * ( - 1 ) FV_main_maxId_2 ) ) 0 ) ( <= ( + 1 FV_main_id_2 ( * ( - 1 ) FV_main_tmp_2 ) ) 0 ) ( <= ( + 1 FV_main_maxId_2 ( * ( - 1 ) FV_main_tmp_2 ) ) 0 ) ( = ( + ( - 1 ) FV_undef6_2 ) 0 ) ) ( and ( <= ( + ( * ( - 1 ) FV_main_maxId_2 ) FV_main_tmp_2 ) 0 ) ( <= ( + ( * ( - 1 ) FV_main_maxId_2 ) ( * ( - 1 ) FV_main_tmp_2 ) ) 0 ) ( <= ( * ( - 1 ) FV_main_tmp_2 ) 0 ) ( <= ( + 1 FV_main_id_2 ( * ( - 1 ) FV_main_maxId_2 ) ) 0 ) ( <= ( + 1 ( * ( - 1 ) FV_main_id_2 ) FV_main_tmp_2 ) 0 ) ( = ( + ( - 1 ) FV_undef6_2 ) 0 ) ) ( and ( <= ( * ( - 1 ) FV_main_tmp_2 ) 0 ) ( <= ( + 1 FV_main_id_2 ( * ( - 1 ) FV_main_maxId_2 ) ) 0 ) ( <= ( + 1 FV_main_maxId_2 FV_main_tmp_2 ) 0 ) ) ) ))
(assert ( and ( <= ( + Nl5CT1 ( * Nl5main_id1 FV_main_id_2 ) ( * Nl5main_maxId1 FV_main_maxId_2 ) ( * Nl5main_tmp1 FV_main_tmp_2 ) ) 0 ) ( and ( <= ( * ( - 1 ) FV_main_tmp_2 ) 0 ) ( <= ( + 1 FV_main_id_2 ( * ( - 1 ) FV_main_maxId_2 ) ) 0 ) ( <= ( + 1 FV_main_maxId_2 FV_main_tmp_2 ) 0 ) ) ))
(check-sat)
(exit)
